17	4	3
28	40	43	39	27	42	15	
0	0	0	0	0	2	8	10	4	9	3	3	2	3	4
3	9	0	9	0	2	1	4	6	2	8	1	17
5	0	10	3	0	9	1	8	1	10	9	3	9	10	16
9	6	2	2	0	5	7	3	8	3	7	3	5	6	7
10	0	0	10	1	5	3	10	3	4	4	1	17
25	10	1	2	0	5	6	1	4	9	9	3	13	16	17
175	0	0	0	2	7	1	10	10	6	1	1	8
50	9	8	3	10	8	5	2	5	5	1	1	12
250	6	8	2	5	3	9	7	6	7	10	3	11	15	17
225	9	3	9	9	2	2	3	2	5	6	1	17
250	0	7	5	9	5	9	2	5	3	10	1	17
125	0	5	2	6	3	10	10	3	10	6	1	17
2	0	3	0	0	3	7	10	5	2	4	2	14	17
5	8	10	10	8	5	5	3	2	1	10	1	17
7	0	0	5	0	1	3	1	4	4	5	1	17
7	5	6	0	10	10	9	4	1	4	7	1	17
0	0	0	0	0	1	7	7	1	9	6	0
